







































































































63 62 3 70 66 33 45 
5 54 14 47 24 31 6 
39 35 41 29 38 13 19 40 
11 27 49 72 64 36 
18 32 8 44 51 7 50 
60 2 76 55 53 10 68 61 
4 57 30 56 26 43 52 
9 22 28 25 12 15 0 
48 73 75 74 42 65 58 
34 20 1 16 37 46 23 
59 17 67 21 69 71 
